p tw 100 16501 2 
1 3 
1 4 
1 5 
1 6 
1 7 
1 8 
1 9 
1 10 
1 11 
1 12 
1 13 
1 14 
1 15 
1 16 
1 17 
1 18 
1 19 
1 20 
1 21 
1 22 
1 23 
1 33 
1 42 
1 44 
1 58 
1 67 
1 75 
1 78 
1 82 
1 89 
1 95 
1 100 
2 3 
2 4 
2 5 
2 6 
2 7 
2 8 
2 9 
2 10 
2 11 
2 12 
2 13 
2 17 
2 24 
2 25 
2 26 
2 27 
2 28 
2 29 
2 30 
2 31 
2 32 
2 33 
2 39 
2 47 
2 53 
2 62 
2 76 
2 85 
2 89 
2 90 
2 91 
2 92 
3 4 
3 5 
3 6 
3 7 
3 8 
3 9 
3 10 
3 11 
3 12 
3 14 
3 17 
3 24 
3 28 
3 34 
3 35 
3 36 
3 37 
3 38 
3 39 
3 40 
3 41 
3 42 
3 45 
3 52 
3 59 
3 65 
3 66 
3 67 
3 68 
3 69 
3 70 
4 5 
4 6 
4 7 
4 8 
4 9 
4 10 
4 11 
4 12 
4 15 
4 18 
4 25 
4 29 
4 34 
4 36 
4 43 
4 44 
4 45 
4 46 
4 47 
4 48 
4 49 
4 50 
4 53 
4 60 
4 65 
4 71 
4 72 
4 73 
4 74 
4 75 
5 6 
5 7 
5 8 
5 9 
5 10 
5 11 
5 12 
5 13 
5 14 
5 26 
5 41 
5 43 
5 49 
5 51 
5 52 
5 53 
5 54 
5 55 
5 56 
5 57 
5 58 
5 59 
5 73 
5 77 
5 80 
5 86 
5 90 
5 95 
5 96 
6 7 
6 8 
6 9 
6 10 
6 11 
6 12 
6 16 
6 20 
6 27 
6 31 
6 35 
6 38 
6 44 
6 48 
6 51 
6 54 
6 59 
6 60 
6 61 
6 62 
6 63 
6 64 
6 67 
6 71 
6 85 
6 86 
6 87 
6 88 
7 8 
7 9 
7 10 
7 11 
7 12 
7 18 
7 22 
7 26 
7 30 
7 34 
7 37 
7 46 
7 54 
7 60 
7 61 
7 66 
7 70 
7 76 
7 77 
7 78 
7 79 
7 84 
7 87 
7 92 
7 94 
7 96 
7 100 
8 9 
8 10 
8 11 
8 12 
8 19 
8 20 
8 28 
8 30 
8 37 
8 40 
8 47 
8 49 
8 51 
8 55 
8 63 
8 68 
8 71 
8 72 
8 80 
8 81 
8 82 
8 83 
8 84 
8 89 
8 93 
8 94 
9 10 
9 11 
9 12 
9 15 
9 16 
9 24 
9 33 
9 41 
9 43 
9 56 
9 64 
9 65 
9 69 
9 72 
9 78 
9 79 
9 81 
9 84 
9 87 
9 88 
9 90 
9 91 
9 93 
9 97 
9 99 
10 11 
10 12 
10 19 
10 23 
10 31 
10 32 
10 39 
10 42 
10 48 
10 50 
10 56 
10 58 
10 61 
10 63 
10 69 
10 70 
10 73 
10 74 
10 77 
10 83 
10 91 
10 94 
10 98 
10 99 
11 12 
11 21 
11 23 
11 25 
11 29 
11 35 
11 38 
11 50 
11 55 
11 57 
11 62 
11 66 
11 68 
11 75 
11 76 
11 80 
11 81 
11 88 
11 96 
11 97 
11 98 
11 99 
11 100 
12 21 
12 22 
12 27 
12 32 
12 36 
12 40 
12 45 
12 46 
12 52 
12 57 
12 64 
12 74 
12 79 
12 82 
12 83 
12 85 
12 86 
12 92 
12 93 
12 95 
12 97 
12 98 
13 14 
13 15 
13 16 
13 17 
13 18 
13 19 
13 20 
13 21 
13 22 
13 23 
13 24 
13 25 
13 26 
13 27 
13 28 
13 29 
13 30 
13 31 
13 32 
13 33 
13 41 
13 49 
13 59 
13 73 
13 77 
13 80 
13 86 
13 90 
13 95 
13 96 
14 15 
14 16 
14 17 
14 18 
14 19 
14 20 
14 21 
14 22 
14 23 
14 24 
14 26 
14 34 
14 35 
14 36 
14 37 
14 38 
14 39 
14 40 
14 41 
14 42 
14 43 
14 51 
14 52 
14 53 
14 54 
14 55 
14 56 
14 57 
14 58 
15 16 
15 17 
15 18 
15 19 
15 20 
15 21 
15 22 
15 23 
15 24 
15 25 
15 34 
15 43 
15 44 
15 45 
15 46 
15 47 
15 48 
15 49 
15 50 
15 56 
15 64 
15 69 
15 72 
15 78 
15 81 
15 87 
15 90 
15 97 
16 17 
16 18 
16 19 
16 20 
16 21 
16 22 
16 23 
16 27 
16 33 
16 35 
16 41 
16 43 
16 44 
16 51 
16 59 
16 60 
16 61 
16 62 
16 63 
16 64 
16 65 
16 79 
16 84 
16 88 
16 91 
16 93 
16 99 
17 18 
17 19 
17 20 
17 21 
17 22 
17 23 
17 28 
17 39 
17 45 
17 47 
17 52 
17 53 
17 59 
17 62 
17 65 
17 66 
17 67 
17 68 
17 69 
17 70 
17 76 
17 85 
17 89 
17 90 
17 91 
17 92 
18 19 
18 20 
18 21 
18 22 
18 23 
18 29 
18 30 
18 36 
18 37 
18 46 
18 53 
18 54 
18 60 
18 61 
18 65 
18 66 
18 71 
18 72 
18 73 
18 74 
18 75 
18 76 
18 77 
18 78 
18 79 
19 20 
19 21 
19 22 
19 23 
19 28 
19 31 
19 37 
19 42 
19 47 
19 50 
19 51 
19 56 
19 63 
19 70 
19 71 
19 74 
19 77 
19 80 
19 81 
19 82 
19 83 
19 84 
19 91 
19 98 
20 21 
20 22 
20 23 
20 30 
20 31 
20 38 
20 40 
20 48 
20 49 
20 54 
20 55 
20 63 
20 67 
20 68 
20 71 
20 72 
20 85 
20 86 
20 87 
20 88 
20 89 
20 93 
20 94 
21 22 
21 23 
21 29 
21 32 
21 38 
21 40 
21 45 
21 50 
21 55 
21 57 
21 62 
21 64 
21 66 
21 74 
21 79 
21 80 
21 82 
21 86 
21 92 
21 97 
21 99 
21 100 
22 23 
22 26 
22 27 
22 34 
22 36 
22 46 
22 52 
22 60 
22 70 
22 83 
22 84 
22 85 
22 87 
22 92 
22 93 
22 94 
22 95 
22 96 
22 97 
22 98 
22 100 
23 25 
23 32 
23 35 
23 39 
23 48 
23 57 
23 58 
23 61 
23 68 
23 69 
23 73 
23 75 
23 76 
23 81 
23 83 
23 88 
23 94 
23 96 
23 98 
23 99 
24 25 
24 26 
24 27 
24 28 
24 29 
24 30 
24 31 
24 32 
24 33 
24 34 
24 35 
24 36 
24 37 
24 38 
24 39 
24 40 
24 41 
24 42 
24 56 
24 64 
24 69 
24 72 
24 78 
24 81 
24 87 
24 90 
24 97 
25 26 
25 27 
25 28 
25 29 
25 30 
25 31 
25 32 
25 33 
25 34 
25 35 
25 43 
25 44 
25 45 
25 46 
25 47 
25 48 
25 49 
25 50 
25 57 
25 68 
25 75 
25 76 
25 81 
25 88 
25 96 
25 98 
26 27 
26 28 
26 29 
26 30 
26 31 
26 32 
26 33 
26 34 
26 43 
26 51 
26 52 
26 53 
26 54 
26 55 
26 56 
26 57 
26 58 
26 60 
26 70 
26 84 
26 87 
26 92 
26 94 
26 96 
26 100 
27 28 
27 29 
27 30 
27 31 
27 32 
27 33 
27 35 
27 36 
27 44 
27 46 
27 51 
27 52 
27 59 
27 60 
27 61 
27 62 
27 63 
27 64 
27 83 
27 85 
27 93 
27 95 
27 97 
27 98 
28 29 
28 30 
28 31 
28 32 
28 33 
28 37 
28 45 
28 47 
28 51 
28 52 
28 59 
28 65 
28 66 
28 67 
28 68 
28 69 
28 70 
28 71 
28 80 
28 81 
28 82 
28 83 
28 84 
29 30 
29 31 
29 32 
29 33 
29 36 
29 38 
29 50 
29 53 
29 55 
29 60 
29 62 
29 65 
29 66 
29 71 
29 72 
29 73 
29 74 
29 75 
29 80 
29 97 
29 99 
29 100 
30 31 
30 32 
30 33 
30 37 
30 40 
30 46 
30 49 
30 54 
30 55 
30 61 
30 63 
30 66 
30 68 
30 72 
30 76 
30 77 
30 78 
30 79 
30 89 
30 93 
30 94 
31 32 
31 33 
31 38 
31 42 
31 48 
31 50 
31 54 
31 56 
31 63 
31 67 
31 70 
31 71 
31 74 
31 77 
31 85 
31 86 
31 87 
31 88 
31 91 
31 98 
32 33 
32 39 
32 40 
32 45 
32 48 
32 57 
32 58 
32 61 
32 64 
32 69 
32 73 
32 74 
32 79 
32 82 
32 83 
32 86 
32 92 
32 94 
32 99 
33 41 
33 42 
33 43 
33 44 
33 58 
33 65 
33 67 
33 75 
33 78 
33 79 
33 82 
33 84 
33 88 
33 89 
33 91 
33 93 
33 95 
33 99 
33 100 
34 35 
34 36 
34 37 
34 38 
34 39 
34 40 
34 41 
34 42 
34 43 
34 44 
34 45 
34 46 
34 47 
34 48 
34 49 
34 50 
34 60 
34 70 
34 84 
34 87 
34 92 
34 94 
34 96 
34 100 
35 36 
35 37 
35 38 
35 39 
35 40 
35 41 
35 42 
35 44 
35 51 
35 57 
35 59 
35 60 
35 61 
35 62 
35 63 
35 64 
35 68 
35 75 
35 76 
35 81 
35 88 
35 96 
35 98 
36 37 
36 38 
36 39 
36 40 
36 41 
36 42 
36 46 
36 52 
36 53 
36 60 
36 65 
36 71 
36 72 
36 73 
36 74 
36 75 
36 83 
36 85 
36 93 
36 95 
36 97 
36 98 
37 38 
37 39 
37 40 
37 41 
37 42 
37 46 
37 47 
37 51 
37 54 
37 61 
37 66 
37 71 
37 76 
37 77 
37 78 
37 79 
37 80 
37 81 
37 82 
37 83 
37 84 
38 39 
38 40 
38 41 
38 42 
38 48 
38 50 
38 54 
38 55 
38 62 
38 66 
38 67 
38 71 
38 80 
38 85 
38 86 
38 87 
38 88 
38 97 
38 99 
38 100 
39 40 
39 41 
39 42 
39 47 
39 48 
39 53 
39 58 
39 61 
39 62 
39 69 
39 73 
39 76 
39 83 
39 85 
39 89 
39 90 
39 91 
39 92 
39 94 
39 99 
40 41 
40 42 
40 45 
40 49 
40 55 
40 57 
40 63 
40 64 
40 68 
40 72 
40 74 
40 79 
40 82 
40 86 
40 89 
40 92 
40 93 
40 94 
41 42 
41 43 
41 49 
41 59 
41 65 
41 73 
41 77 
41 79 
41 80 
41 84 
41 86 
41 88 
41 90 
41 91 
41 93 
41 95 
41 96 
41 99 
42 44 
42 50 
42 56 
42 58 
42 63 
42 67 
42 70 
42 74 
42 75 
42 77 
42 78 
42 82 
42 89 
42 91 
42 95 
42 98 
42 100 
43 44 
43 45 
43 46 
43 47 
43 48 
43 49 
43 50 
43 51 
43 52 
43 53 
43 54 
43 55 
43 56 
43 57 
43 58 
43 65 
43 79 
43 84 
43 88 
43 91 
43 93 
43 99 
44 45 
44 46 
44 47 
44 48 
44 49 
44 50 
44 51 
44 58 
44 59 
44 60 
44 61 
44 62 
44 63 
44 64 
44 67 
44 75 
44 78 
44 82 
44 89 
44 95 
44 100 
45 46 
45 47 
45 48 
45 49 
45 50 
45 52 
45 57 
45 59 
45 64 
45 65 
45 66 
45 67 
45 68 
45 69 
45 70 
45 74 
45 79 
45 82 
45 86 
45 92 
46 47 
46 48 
46 49 
46 50 
46 52 
46 54 
46 61 
46 66 
46 76 
46 77 
46 78 
46 79 
46 83 
46 85 
46 93 
46 95 
46 97 
46 98 
47 48 
47 49 
47 50 
47 51 
47 53 
47 62 
47 71 
47 76 
47 80 
47 81 
47 82 
47 83 
47 84 
47 85 
47 89 
47 90 
47 91 
47 92 
48 49 
48 50 
48 54 
48 58 
48 61 
48 67 
48 69 
48 71 
48 73 
48 83 
48 85 
48 86 
48 87 
48 88 
48 94 
48 99 
49 50 
49 55 
49 59 
49 63 
49 68 
49 72 
49 73 
49 77 
49 80 
49 86 
49 89 
49 90 
49 93 
49 94 
49 95 
49 96 
50 55 
50 56 
50 62 
50 63 
50 66 
50 70 
50 74 
50 77 
50 80 
50 91 
50 97 
50 98 
50 99 
50 100 
51 52 
51 53 
51 54 
51 55 
51 56 
51 57 
51 58 
51 59 
51 60 
51 61 
51 62 
51 63 
51 64 
51 71 
51 80 
51 81 
51 82 
51 83 
51 84 
52 53 
52 54 
52 55 
52 56 
52 57 
52 58 
52 59 
52 65 
52 66 
52 67 
52 68 
52 69 
52 70 
52 83 
52 85 
52 93 
52 95 
52 97 
52 98 
53 54 
53 55 
53 56 
53 57 
53 58 
53 60 
53 62 
53 65 
53 71 
53 72 
53 73 
53 74 
53 75 
53 76 
53 85 
53 89 
53 90 
53 91 
53 92 
54 55 
54 56 
54 57 
54 58 
54 61 
54 66 
54 67 
54 71 
54 76 
54 77 
54 78 
54 79 
54 85 
54 86 
54 87 
54 88 
55 56 
55 57 
55 58 
55 62 
55 63 
55 66 
55 68 
55 72 
55 80 
55 89 
55 93 
55 94 
55 97 
55 99 
55 100 
56 57 
56 58 
56 63 
56 64 
56 69 
56 70 
56 72 
56 74 
56 77 
56 78 
56 81 
56 87 
56 90 
56 91 
56 97 
56 98 
57 58 
57 64 
57 68 
57 74 
57 75 
57 76 
57 79 
57 81 
57 82 
57 86 
57 88 
57 92 
57 96 
57 98 
58 61 
58 67 
58 69 
58 73 
58 75 
58 78 
58 82 
58 83 
58 89 
58 94 
58 95 
58 99 
58 100 
59 60 
59 61 
59 62 
59 63 
59 64 
59 65 
59 66 
59 67 
59 68 
59 69 
59 70 
59 73 
59 77 
59 80 
59 86 
59 90 
59 95 
59 96 
60 61 
60 62 
60 63 
60 64 
60 65 
60 70 
60 71 
60 72 
60 73 
60 74 
60 75 
60 84 
60 87 
60 92 
60 94 
60 96 
60 100 
61 62 
61 63 
61 64 
61 66 
61 69 
61 73 
61 76 
61 77 
61 78 
61 79 
61 83 
61 94 
61 99 
62 63 
62 64 
62 66 
62 76 
62 80 
62 85 
62 89 
62 90 
62 91 
62 92 
62 97 
62 99 
62 100 
63 64 
63 68 
63 70 
63 72 
63 74 
63 77 
63 89 
63 91 
63 93 
63 94 
63 98 
64 69 
64 72 
64 74 
64 78 
64 79 
64 81 
64 82 
64 86 
64 87 
64 90 
64 92 
64 97 
65 66 
65 67 
65 68 
65 69 
65 70 
65 71 
65 72 
65 73 
65 74 
65 75 
65 79 
65 84 
65 88 
65 91 
65 93 
65 99 
66 67 
66 68 
66 69 
66 70 
66 76 
66 77 
66 78 
66 79 
66 80 
66 97 
66 99 
66 100 
67 68 
67 69 
67 70 
67 71 
67 75 
67 78 
67 82 
67 85 
67 86 
67 87 
67 88 
67 89 
67 95 
67 100 
68 69 
68 70 
68 72 
68 75 
68 76 
68 81 
68 88 
68 89 
68 93 
68 94 
68 96 
68 98 
69 70 
69 72 
69 73 
69 78 
69 81 
69 83 
69 87 
69 90 
69 94 
69 97 
69 99 
70 74 
70 77 
70 84 
70 87 
70 91 
70 92 
70 94 
70 96 
70 98 
70 100 
71 72 
71 73 
71 74 
71 75 
71 80 
71 81 
71 82 
71 83 
71 84 
71 85 
71 86 
71 87 
71 88 
72 73 
72 74 
72 75 
72 78 
72 81 
72 87 
72 89 
72 90 
72 93 
72 94 
72 97 
73 74 
73 75 
73 77 
73 80 
73 83 
73 86 
73 90 
73 94 
73 95 
73 96 
73 99 
74 75 
74 77 
74 79 
74 82 
74 86 
74 91 
74 92 
74 98 
75 76 
75 78 
75 81 
75 82 
75 88 
75 89 
75 95 
75 96 
75 98 
75 100 
76 77 
76 78 
76 79 
76 81 
76 85 
76 88 
76 89 
76 90 
76 91 
76 92 
76 96 
76 98 
77 78 
77 79 
77 80 
77 86 
77 90 
77 91 
77 95 
77 96 
77 98 
78 79 
78 81 
78 82 
78 87 
78 89 
78 90 
78 95 
78 97 
78 100 
79 82 
79 84 
79 86 
79 88 
79 91 
79 92 
79 93 
79 99 
80 81 
80 82 
80 83 
80 84 
80 86 
80 90 
80 95 
80 96 
80 97 
80 99 
80 100 
81 82 
81 83 
81 84 
81 87 
81 88 
81 90 
81 96 
81 97 
81 98 
82 83 
82 84 
82 86 
82 89 
82 92 
82 95 
82 100 
83 84 
83 85 
83 93 
83 94 
83 95 
83 97 
83 98 
83 99 
84 87 
84 88 
84 91 
84 92 
84 93 
84 94 
84 96 
84 99 
84 100 
85 86 
85 87 
85 88 
85 89 
85 90 
85 91 
85 92 
85 93 
85 95 
85 97 
85 98 
86 87 
86 88 
86 90 
86 92 
86 95 
86 96 
87 88 
87 90 
87 92 
87 94 
87 96 
87 97 
87 100 
88 91 
88 93 
88 96 
88 98 
88 99 
89 90 
89 91 
89 92 
89 93 
89 94 
89 95 
89 100 
90 91 
90 92 
90 95 
90 96 
90 97 
91 92 
91 93 
91 98 
91 99 
92 94 
92 96 
92 100 
93 94 
93 95 
93 97 
93 98 
93 99 
94 96 
94 99 
94 100 
95 96 
95 97 
95 98 
95 100 
96 98 
96 100 
97 98 
97 99 
97 100 
99 100 
